c turning on binary mode checking
c parsing input formula with 259840 variables and 1039934 clauses
c finished parsing, read 3213185 bytes from proof file
c detected empty clause; start verification via backward checking
c 2482 of 1039934 clauses in core                            
c 619 of 131270 lemmas in core using 13184 resolution steps
c 0 RAT lemmas in core; 40 redundant literals in core lemmas
s VERIFIED
c verification time: 1.276 seconds
